res/heu/pdp_100_mem_1.0/1.0_1.0/lc203.txt
Vehicle 0
0 10 11 12 15 14 62 66 17 16 19 20 21 67 63 18 13 61 72 64 8 68 71 7 70 65 58 69 5 56 6 57 59 38 89 103 

Vehicle 1
0 34 31 82 85 37 30 32 83 36 35 33 25 26 86 77 84 27 29 28 79 22 88 73 24 80 81 87 75 76 23 74 78 9 60 103 

Vehicle 2
0 46 4 2 1 97 51 102 49 55 47 48 50 99 3 44 45 43 52 95 100 40 41 101 53 92 54 91 94 96 98 39 90 42 93 103 

Vehicle used: 3
Total Distance Traveled: 642.255276450761
Total Penalty of Delay: 0.0
Time Elasped: 33292
Vehicle 0 with capacity 700
			Node 0
		Load 0.0
		Time 0.0
		Delay 0.0
			Membership 1
			Time Window [0, 3390]
			Load at node 0
			Service time at node 0
			Location (40, 50)
	Distance between 12.165525060596439
			Node 10
		Load 20.0
		Time 22.0
		Delay 0.0
			Membership 1
			Time Window [22, 182]
			Load at node 20
			Service time at node 90
			Location (28, 52)
	Distance between 3.605551275463989
			Node 11
		Load 30.0
		Time 115.605551275464
		Delay 0.0
			Membership 1
			Time Window [0, 3285]
			Load at node 10
			Service time at node 90
			Location (25, 50)
	Distance between 2.8284271247461903
			Node 12
		Load 40.0
		Time 209.0
		Delay 0.0
			Membership 1
			Time Window [209, 369]
			Load at node 10
			Service time at node 90
			Location (23, 52)
	Distance between 4.242640687119285
			Node 15
		Load 50.0
		Time 303.24264068711926
		Delay 0.0
			Membership 1
			Time Window [303, 463]
			Load at node 10
			Service time at node 90
			Location (20, 55)
	Distance between 5.0
			Node 14
		Load 60.0
		Time 398.24264068711926
		Delay 0.0
			Membership 1
			Time Window [0, 3280]
			Load at node 10
			Service time at node 90
			Location (20, 50)
	Distance between 8.94427190999916
			Node 62
		Load 50.0
		Time 497.1869125971184
		Delay 0.0
			Membership 1
			Time Window [497, 657]
			Load at node -10
			Service time at node 90
			Location (16, 42)
	Distance between 6.324555320336759
			Node 66
		Load 40.0
		Time 593.5114679174552
		Delay 0.0
			Membership 1
			Time Window [0, 3268]
			Load at node -10
			Service time at node 90
			Location (10, 40)
	Distance between 2.0
			Node 17
		Load 80.0
		Time 685.5114679174552
		Delay 0.0
			Membership 1
			Time Window [685, 845]
			Load at node 40
			Service time at node 90
			Location (8, 40)
	Distance between 5.385164807134504
			Node 16
		Load 100.0
		Time 780.8966327245897
		Delay 0.0
			Membership 1
			Time Window [0, 3266]
			Load at node 20
			Service time at node 90
			Location (10, 35)
	Distance between 5.0
			Node 19
		Load 110.0
		Time 876.0
		Delay 0.0
			Membership 1
			Time Window [876, 1036]
			Load at node 10
			Service time at node 90
			Location (5, 35)
	Distance between 5.830951894845301
			Node 20
		Load 130.0
		Time 971.8309518948453
		Delay 0.0
			Membership 1
			Time Window [0, 3260]
			Load at node 20
			Service time at node 90
			Location (2, 40)
	Distance between 2.0
			Node 21
		Load 160.0
		Time 1063.8309518948454
		Delay 0.0
			Membership 1
			Time Window [1063, 1223]
			Load at node 30
			Service time at node 90
			Location (0, 40)
	Distance between 5.0
			Node 67
		Load 140.0
		Time 1158.8309518948454
		Delay 0.0
			Membership 1
			Time Window [1158, 1318]
			Load at node -20
			Service time at node 90
			Location (0, 45)
	Distance between 5.0
			Node 63
		Load 130.0
		Time 1253.8309518948454
		Delay 0.0
			Membership 1
			Time Window [1253, 1413]
			Load at node -10
			Service time at node 90
			Location (5, 45)
	Distance between 3.0
			Node 18
		Load 150.0
		Time 1346.8309518948454
		Delay 0.0
			Membership 1
			Time Window [0, 3267]
			Load at node 20
			Service time at node 90
			Location (8, 45)
	Distance between 10.770329614269007
			Node 13
		Load 170.0
		Time 1447.6012815091144
		Delay 0.0
			Membership 1
			Time Window [0, 3263]
			Load at node 20
			Service time at node 90
			Location (4, 55)
	Distance between 8.06225774829855
			Node 61
		Load 150.0
		Time 1545.663539257413
		Delay 0.0
			Membership 1
			Time Window [0, 3265]
			Load at node -20
			Service time at node 90
			Location (8, 62)
	Distance between 7.211102550927978
			Node 72
		Load 120.0
		Time 1643.0
		Delay 0.0
			Membership 1
			Time Window [1643, 1803]
			Load at node -30
			Service time at node 90
			Location (14, 66)
	Distance between 9.055385138137417
			Node 64
		Load 100.0
		Time 1742.0553851381374
		Delay 0.0
			Membership 1
			Time Window [0, 3264]
			Load at node -20
			Service time at node 90
			Location (15, 75)
	Distance between 5.0
			Node 8
		Load 110.0
		Time 1837.0553851381374
		Delay 0.0
			Membership 1
			Time Window [0, 3260]
			Load at node 10
			Service time at node 90
			Location (15, 80)
	Distance between 7.0710678118654755
			Node 68
		Load 70.0
		Time 1934.1264529500029
		Delay 0.0
			Membership 1
			Time Window [0, 3259]
			Load at node -40
			Service time at node 90
			Location (20, 85)
	Distance between 2.0
			Node 71
		Load 50.0
		Time 2026.1264529500029
		Delay 0.0
			Membership 1
			Time Window [0, 3260]
			Load at node -20
			Service time at node 90
			Location (22, 85)
	Distance between 3.0
			Node 7
		Load 70.0
		Time 2119.126452950003
		Delay 0.0
			Membership 1
			Time Window [0, 3261]
			Load at node 20
			Service time at node 90
			Location (25, 85)
	Distance between 7.0710678118654755
			Node 70
		Load 60.0
		Time 2216.1975207618684
		Delay 0.0
			Membership 1
			Time Window [2216, 2376]
			Load at node -10
			Service time at node 90
			Location (20, 80)
	Distance between 5.385164807134504
			Node 65
		Load 50.0
		Time 2311.582685569003
		Delay 0.0
			Membership 1
			Time Window [2311, 2471]
			Load at node -10
			Service time at node 90
			Location (18, 75)
	Distance between 4.0
			Node 58
		Load 30.0
		Time 2405.582685569003
		Delay 0.0
			Membership 1
			Time Window [2405, 2565]
			Load at node -20
			Service time at node 90
			Location (22, 75)
	Distance between 9.0
			Node 69
		Load 10.0
		Time 2504.582685569003
		Delay 0.0
			Membership 1
			Time Window [2504, 2664]
			Load at node -20
			Service time at node 90
			Location (22, 66)
	Distance between 7.211102550927978
			Node 5
		Load 20.0
		Time 2601.793788119931
		Delay 0.0
			Membership 1
			Time Window [2601, 2761]
			Load at node 10
			Service time at node 90
			Location (28, 70)
	Distance between 7.0710678118654755
			Node 56
		Load 10.0
		Time 2698.8648559317962
		Delay 0.0
			Membership 1
			Time Window [2698, 2858]
			Load at node -10
			Service time at node 90
			Location (35, 69)
	Distance between 3.0
			Node 6
		Load 20.0
		Time 2791.8648559317962
		Delay 0.0
			Membership 1
			Time Window [2791, 2951]
			Load at node 10
			Service time at node 0
			Location (35, 66)
	Distance between 0.0
			Node 57
		Load 10.0
		Time 2791.8648559317962
		Delay 0.0
			Membership 1
			Time Window [2791, 2951]
			Load at node -10
			Service time at node 90
			Location (35, 66)
	Distance between 6.082762530298219
			Node 59
		Load 0.0
		Time 2887.9476184620944
		Delay 0.0
			Membership 1
			Time Window [2887, 3047]
			Load at node -10
			Service time at node 90
			Location (34, 60)
	Distance between 12.083045973594572
			Node 38
		Load 20.0
		Time 2990.030664435689
		Delay 0.0
			Membership 1
			Time Window [0, 3284]
			Load at node 20
			Service time at node 90
			Location (45, 65)
	Distance between 17.46424919657298
			Node 89
		Load 0.0
		Time 3097.4949136322616
		Delay 0.0
			Membership 1
			Time Window [0, 3270]
			Load at node -20
			Service time at node 90
			Location (62, 69)
	Distance between 29.068883707497267
			Node 103
		Load 0.0
		Time 3216.563797339759
		Delay 0.0
			Membership 1
			Time Window [0, 3390]
			Load at node 0
			Service time at node 0
			Location (40, 50)

Vehicle 1 with capacity 700
			Node 0
		Load 0.0
		Time 0.0
		Delay 0.0
			Membership 1
			Time Window [0, 3390]
			Load at node 0
			Service time at node 0
			Location (40, 50)
	Distance between 12.206555615733702
			Node 34
		Load 10.0
		Time 12.206555615733702
		Delay 0.0
			Membership 1
			Time Window [12, 172]
			Load at node 10
			Service time at node 90
			Location (47, 40)
	Distance between 3.0
			Node 31
		Load 60.0
		Time 105.2065556157337
		Delay 0.0
			Membership 1
			Time Window [0, 3285]
			Load at node 50
			Service time at node 90
			Location (50, 40)
	Distance between 5.0
			Node 82
		Load 10.0
		Time 200.2065556157337
		Delay 0.0
			Membership 1
			Time Window [120, 280]
			Load at node -50
			Service time at node 90
			Location (50, 35)
	Distance between 3.0
			Node 85
		Load 0.0
		Time 293.2065556157337
		Delay 0.0
			Membership 1
			Time Window [213, 373]
			Load at node -10
			Service time at node 90
			Location (53, 35)
	Distance between 5.0
			Node 37
		Load 10.0
		Time 388.2065556157337
		Delay 0.0
			Membership 1
			Time Window [0, 3276]
			Load at node 10
			Service time at node 90
			Location (53, 30)
	Distance between 3.0
			Node 30
		Load 20.0
		Time 481.2065556157337
		Delay 0.0
			Membership 1
			Time Window [0, 3277]
			Load at node 10
			Service time at node 90
			Location (50, 30)
	Distance between 2.0
			Node 32
		Load 30.0
		Time 573.2065556157337
		Delay 0.0
			Membership 1
			Time Window [493, 653]
			Load at node 10
			Service time at node 90
			Location (48, 30)
	Distance between 5.0990195135927845
			Node 83
		Load 20.0
		Time 668.3055751293265
		Delay 0.0
			Membership 1
			Time Window [588, 748]
			Load at node -10
			Service time at node 90
			Location (47, 35)
	Distance between 2.0
			Node 36
		Load 30.0
		Time 760.3055751293265
		Delay 0.0
			Membership 1
			Time Window [680, 840]
			Load at node 10
			Service time at node 90
			Location (45, 35)
	Distance between 5.830951894845301
			Node 35
		Load 40.0
		Time 856.1365270241718
		Delay 0.0
			Membership 1
			Time Window [776, 936]
			Load at node 10
			Service time at node 90
			Location (42, 30)
	Distance between 5.385164807134504
			Node 33
		Load 50.0
		Time 951.5216918313063
		Delay 0.0
			Membership 1
			Time Window [871, 1031]
			Load at node 10
			Service time at node 90
			Location (44, 25)
	Distance between 6.4031242374328485
			Node 25
		Load 60.0
		Time 1047.9248160687391
		Delay 0.0
			Membership 1
			Time Window [967, 1127]
			Load at node 10
			Service time at node 90
			Location (48, 20)
	Distance between 7.810249675906654
			Node 26
		Load 70.0
		Time 1145.7350657446457
		Delay 0.0
			Membership 1
			Time Window [1065, 1225]
			Load at node 10
			Service time at node 90
			Location (42, 15)
	Distance between 5.0
			Node 86
		Load 60.0
		Time 1240.7350657446457
		Delay 0.0
			Membership 1
			Time Window [0, 3259]
			Load at node -10
			Service time at node 90
			Location (42, 10)
	Distance between 5.385164807134504
			Node 77
		Load 50.0
		Time 1336.1202305517802
		Delay 0.0
			Membership 1
			Time Window [1256, 1416]
			Load at node -10
			Service time at node 90
			Location (44, 5)
	Distance between 4.0
			Node 84
		Load 40.0
		Time 1430.1202305517802
		Delay 0.0
			Membership 1
			Time Window [1350, 1510]
			Load at node -10
			Service time at node 90
			Location (40, 5)
	Distance between 2.0
			Node 27
		Load 70.0
		Time 1522.1202305517802
		Delay 0.0
			Membership 1
			Time Window [1442, 1602]
			Load at node 30
			Service time at node 90
			Location (38, 5)
	Distance between 3.0
			Node 29
		Load 90.0
		Time 1615.1202305517802
		Delay 0.0
			Membership 1
			Time Window [0, 3254]
			Load at node 20
			Service time at node 90
			Location (35, 5)
	Distance between 5.830951894845301
			Node 28
		Load 100.0
		Time 1710.9511824466256
		Delay 0.0
			Membership 1
			Time Window [0, 3259]
			Load at node 10
			Service time at node 90
			Location (38, 10)
	Distance between 5.0
			Node 79
		Load 90.0
		Time 1805.9511824466256
		Delay 0.0
			Membership 1
			Time Window [0, 3264]
			Load at node -10
			Service time at node 90
			Location (38, 15)
	Distance between 3.605551275463989
			Node 22
		Load 100.0
		Time 1899.5567337220896
		Delay 0.0
			Membership 1
			Time Window [1819, 1979]
			Load at node 10
			Service time at node 90
			Location (36, 18)
	Distance between 4.47213595499958
			Node 88
		Load 90.0
		Time 1994.0288696770892
		Delay 0.0
			Membership 1
			Time Window [1913, 2073]
			Load at node -10
			Service time at node 90
			Location (32, 20)
	Distance between 5.385164807134504
			Node 73
		Load 80.0
		Time 2089.414034484224
		Delay 0.0
			Membership 1
			Time Window [0, 3274]
			Load at node -10
			Service time at node 90
			Location (34, 25)
	Distance between 6.4031242374328485
			Node 24
		Load 90.0
		Time 2185.8171587216566
		Delay 0.0
			Membership 1
			Time Window [2105, 2265]
			Load at node 10
			Service time at node 90
			Location (30, 30)
	Distance between 5.0
			Node 80
		Load 70.0
		Time 2280.8171587216566
		Delay 0.0
			Membership 1
			Time Window [0, 3275]
			Load at node -20
			Service time at node 90
			Location (25, 30)
	Distance between 2.23606797749979
			Node 81
		Load 60.0
		Time 2373.0532266991563
		Delay 0.0
			Membership 1
			Time Window [0, 3277]
			Load at node -10
			Service time at node 90
			Location (26, 32)
	Distance between 3.1622776601683795
			Node 87
		Load 50.0
		Time 2466.2155043593248
		Delay 0.0
			Membership 1
			Time Window [0, 3278]
			Load at node -10
			Service time at node 90
			Location (25, 35)
	Distance between 5.0
			Node 75
		Load 40.0
		Time 2561.2155043593248
		Delay 0.0
			Membership 1
			Time Window [0, 3281]
			Load at node -10
			Service time at node 90
			Location (30, 35)
	Distance between 4.242640687119285
			Node 76
		Load 30.0
		Time 2666.0
		Delay 0.0
			Membership 1
			Time Window [2666, 2826]
			Load at node -10
			Service time at node 90
			Location (33, 32)
	Distance between 2.0
			Node 23
		Load 40.0
		Time 2758.0
		Delay 0.0
			Membership 1
			Time Window [2758, 2918]
			Load at node 10
			Service time at node 90
			Location (35, 32)
	Distance between 3.605551275463989
			Node 74
		Load 30.0
		Time 2851.6055512754638
		Delay 0.0
			Membership 1
			Time Window [0, 3283]
			Load at node -10
			Service time at node 90
			Location (33, 35)
	Distance between 5.830951894845301
			Node 78
		Load 0.0
		Time 2947.436503170309
		Delay 0.0
			Membership 1
			Time Window [0, 3289]
			Load at node -30
			Service time at node 90
			Location (36, 40)
	Distance between 11.661903789690601
			Node 9
		Load 10.0
		Time 3049.09840696
		Delay 0.0
			Membership 1
			Time Window [0, 3290]
			Load at node 10
			Service time at node 90
			Location (30, 50)
	Distance between 6.0
			Node 60
		Load 0.0
		Time 3145.09840696
		Delay 0.0
			Membership 1
			Time Window [0, 3288]
			Load at node -10
			Service time at node 90
			Location (30, 56)
	Distance between 11.661903789690601
			Node 103
		Load 0.0
		Time 3246.7603107496907
		Delay 0.0
			Membership 1
			Time Window [0, 3390]
			Load at node 0
			Service time at node 0
			Location (40, 50)

Vehicle 2 with capacity 700
			Node 0
		Load 0.0
		Time 0.0
		Delay 0.0
			Membership 1
			Time Window [0, 3390]
			Load at node 0
			Service time at node 0
			Location (40, 50)
	Distance between 8.246211251235321
			Node 46
		Load 40.0
		Time 8.246211251235321
		Delay 0.0
			Membership 1
			Time Window [8, 168]
			Load at node 40
			Service time at node 90
			Location (42, 58)
	Distance between 7.0
			Node 4
		Load 50.0
		Time 105.24621125123532
		Delay 0.0
			Membership 1
			Time Window [0, 3284]
			Load at node 10
			Service time at node 90
			Location (42, 65)
	Distance between 5.830951894845301
			Node 2
		Load 80.0
		Time 201.07716314608064
		Delay 0.0
			Membership 1
			Time Window [0, 3279]
			Load at node 30
			Service time at node 90
			Location (45, 70)
	Distance between 8.602325267042627
			Node 1
		Load 90.0
		Time 299.6794884131233
		Delay 0.0
			Membership 1
			Time Window [0, 3272]
			Load at node 10
			Service time at node 90
			Location (52, 75)
	Distance between 5.830951894845301
			Node 97
		Load 50.0
		Time 407.0
		Delay 0.0
			Membership 1
			Time Window [407, 567]
			Load at node -40
			Service time at node 90
			Location (55, 80)
	Distance between 5.0
			Node 51
		Load 70.0
		Time 502.0
		Delay 0.0
			Membership 1
			Time Window [502, 662]
			Load at node 20
			Service time at node 0
			Location (55, 85)
	Distance between 0.0
			Node 102
		Load 50.0
		Time 502.0
		Delay 0.0
			Membership 1
			Time Window [502, 662]
			Load at node -20
			Service time at node 90
			Location (55, 85)
	Distance between 5.0
			Node 49
		Load 80.0
		Time 597.0
		Delay 0.0
			Membership 1
			Time Window [0, 3259]
			Load at node 30
			Service time at node 90
			Location (60, 85)
	Distance between 7.0
			Node 55
		Load 70.0
		Time 694.0
		Delay 0.0
			Membership 1
			Time Window [694, 854]
			Load at node -10
			Service time at node 90
			Location (67, 85)
	Distance between 3.605551275463989
			Node 47
		Load 80.0
		Time 787.605551275464
		Delay 0.0
			Membership 1
			Time Window [0, 3259]
			Load at node 10
			Service time at node 90
			Location (65, 82)
	Distance between 3.605551275463989
			Node 48
		Load 110.0
		Time 881.211102550928
		Delay 0.0
			Membership 1
			Time Window [0, 3262]
			Load at node 30
			Service time at node 90
			Location (62, 80)
	Distance between 6.4031242374328485
			Node 50
		Load 130.0
		Time 977.6142267883608
		Delay 0.0
			Membership 1
			Time Window [0, 3269]
			Load at node 20
			Service time at node 90
			Location (58, 75)
	Distance between 5.0
			Node 99
		Load 100.0
		Time 1072.6142267883608
		Delay 0.0
			Membership 1
			Time Window [0, 3273]
			Load at node -30
			Service time at node 90
			Location (58, 70)
	Distance between 4.47213595499958
			Node 3
		Load 110.0
		Time 1261.0
		Delay 0.0
			Membership 1
			Time Window [1261, 1421]
			Load at node 10
			Service time at node 90
			Location (60, 66)
	Distance between 4.47213595499958
			Node 44
		Load 120.0
		Time 1355.4721359549997
		Delay 0.0
			Membership 1
			Time Window [0, 3278]
			Load at node 10
			Service time at node 90
			Location (56, 64)
	Distance between 5.656854249492381
			Node 45
		Load 130.0
		Time 1451.128990204492
		Delay 0.0
			Membership 1
			Time Window [0, 3277]
			Load at node 10
			Service time at node 90
			Location (60, 60)
	Distance between 5.0
			Node 43
		Load 160.0
		Time 1546.128990204492
		Delay 0.0
			Membership 1
			Time Window [1546, 1706]
			Load at node 30
			Service time at node 90
			Location (65, 60)
	Distance between 5.0990195135927845
			Node 52
		Load 150.0
		Time 1641.2280097180849
		Delay 0.0
			Membership 1
			Time Window [0, 3273]
			Load at node -10
			Service time at node 90
			Location (66, 55)
	Distance between 5.0
			Node 95
		Load 140.0
		Time 1736.2280097180849
		Delay 0.0
			Membership 1
			Time Window [1641, 1801]
			Load at node -10
			Service time at node 90
			Location (70, 58)
	Distance between 3.605551275463989
			Node 100
		Load 110.0
		Time 1829.8335609935489
		Delay 0.0
			Membership 1
			Time Window [0, 3267]
			Load at node -30
			Service time at node 90
			Location (72, 55)
	Distance between 3.0
			Node 40
		Load 130.0
		Time 1922.8335609935489
		Delay 0.0
			Membership 1
			Time Window [0, 3264]
			Load at node 20
			Service time at node 90
			Location (75, 55)
	Distance between 14.212670403551895
			Node 41
		Load 160.0
		Time 2027.0462313971007
		Delay 0.0
			Membership 1
			Time Window [0, 3253]
			Load at node 30
			Service time at node 90
			Location (86, 46)
	Distance between 11.704699910719626
			Node 101
		Load 140.0
		Time 2131.0
		Delay 0.0
			Membership 1
			Time Window [2131, 2291]
			Load at node -20
			Service time at node 90
			Location (90, 35)
	Distance between 5.0
			Node 53
		Load 110.0
		Time 2226.0
		Delay 0.0
			Membership 1
			Time Window [0, 3242]
			Load at node -30
			Service time at node 90
			Location (95, 35)
	Distance between 5.0
			Node 92
		Load 80.0
		Time 2321.0
		Delay 0.0
			Membership 1
			Time Window [2321, 2481]
			Load at node -30
			Service time at node 90
			Location (95, 30)
	Distance between 3.0
			Node 54
		Load 70.0
		Time 2414.0
		Delay 0.0
			Membership 1
			Time Window [0, 3244]
			Load at node -10
			Service time at node 90
			Location (92, 30)
	Distance between 8.602325267042627
			Node 91
		Load 50.0
		Time 2513.0
		Delay 0.0
			Membership 1
			Time Window [2513, 2673]
			Load at node -20
			Service time at node 90
			Location (85, 25)
	Distance between 5.385164807134504
			Node 94
		Load 20.0
		Time 2608.3851648071345
		Delay 0.0
			Membership 1
			Time Window [2608, 2768]
			Load at node -30
			Service time at node 90
			Location (87, 30)
	Distance between 5.385164807134504
			Node 96
		Load 10.0
		Time 2703.770329614269
		Delay 0.0
			Membership 1
			Time Window [0, 3252]
			Load at node -10
			Service time at node 90
			Location (85, 35)
	Distance between 8.602325267042627
			Node 98
		Load 0.0
		Time 2802.3726548813115
		Delay 0.0
			Membership 1
			Time Window [2802, 2962]
			Load at node -10
			Service time at node 90
			Location (78, 40)
	Distance between 7.810249675906654
			Node 39
		Load 10.0
		Time 2900.182904557218
		Delay 0.0
			Membership 1
			Time Window [2900, 3060]
			Load at node 10
			Service time at node 90
			Location (72, 45)
	Distance between 11.180339887498949
			Node 90
		Load 0.0
		Time 3001.363244444717
		Delay 0.0
			Membership 1
			Time Window [0, 3275]
			Load at node -10
			Service time at node 90
			Location (62, 40)
	Distance between 6.324555320336759
			Node 42
		Load 20.0
		Time 3097.687799765054
		Delay 0.0
			Membership 1
			Time Window [3097, 3257]
			Load at node 20
			Service time at node 90
			Location (64, 46)
	Distance between 9.848857801796104
			Node 93
		Load 0.0
		Time 3197.53665756685
		Delay 0.0
			Membership 1
			Time Window [0, 3279]
			Load at node -20
			Service time at node 90
			Location (60, 55)
	Distance between 20.615528128088304
			Node 103
		Load 0.0
		Time 3308.1521856949385
		Delay 0.0
			Membership 1
			Time Window [0, 3390]
			Load at node 0
			Service time at node 0
			Location (40, 50)

